Features/ForMiniZinc/benchmark_puzzles/benchmarks5x5/70/puzzle6.dzn
S = 5;
start = [|0,0,5,0,15,0,0,25,0,0,0,0,0,10,0,0,0,20,0,0,6,0,0,1,21|
19,3,6,25,0,0,0,0,0,0,0,0,0,0,21,24,2,0,0,17,0,0,0,0,0|
0,0,0,18,0,0,19,0,0,1,0,22,0,3,0,0,0,6,16,0,0,0,0,15,12|
0,0,0,8,0,0,0,22,3,0,17,0,0,12,0,0,0,0,0,0,0,0,0,0,2|
0,22,0,0,0,0,4,13,0,0,0,0,6,0,0,0,0,0,0,0,25,0,0,0,0|
6,2,0,0,0,0,0,10,22,0,0,21,3,0,0,0,0,1,0,0,0,0,4,0,16|
0,0,0,7,0,0,0,0,0,0,0,0,0,0,0,0,0,0,0,0,0,10,0,0,0|
0,0,0,0,3,0,0,0,20,0,0,0,0,0,0,0,4,25,0,8,0,0,0,0,0|
0,0,0,0,0,0,0,0,0,0,0,0,0,0,0,0,17,5,0,0,0,0,0,0,0|
0,0,0,0,0,25,3,17,0,0,0,18,0,0,2,10,12,0,0,0,8,0,0,0,13|
0,0,0,23,0,0,0,14,11,0,15,19,0,7,0,17,0,2,0,20,21,0,6,0,0|
0,0,0,0,0,19,0,0,0,0,18,0,0,0,1,0,0,3,0,0,22,0,0,11,0|
0,0,0,0,0,0,0,0,0,0,0,5,2,14,0,0,0,0,6,0,0,0,0,0,23|
12,5,0,0,10,0,0,0,6,0,0,23,0,0,25,13,0,11,0,22,0,1,0,4,14|
0,0,3,0,0,0,0,0,2,0,0,0,0,0,0,0,0,0,0,0,15,0,7,10,20|
0,0,0,0,14,0,7,2,0,0,0,3,0,0,15,0,0,0,0,0,0,11,0,0,0|
16,0,0,0,5,14,0,0,0,0,11,0,0,9,0,0,0,0,21,0,0,24,0,0,0|
0,23,4,0,11,3,0,0,0,20,0,0,24,0,16,0,0,13,0,9,0,14,8,0,0|
0,21,0,0,0,0,0,16,0,0,23,0,12,0,0,0,0,0,0,0,0,0,0,0,6|
0,0,0,0,19,0,23,11,0,0,7,0,0,25,0,15,14,0,5,6,9,0,0,0,0|
25,11,0,0,18,23,2,0,0,0,0,0,4,16,0,0,10,0,17,0,0,0,0,6,0|
0,7,0,19,0,0,0,0,0,4,0,0,0,0,12,20,0,0,0,24,0,23,0,0,0|
0,12,0,6,20,15,0,0,0,7,10,25,0,0,0,0,0,0,3,0,0,0,0,0,0|
0,0,24,0,0,0,0,5,13,0,0,0,0,0,0,0,8,15,0,0,18,12,0,0,0|
0,0,0,4,2,0,0,0,0,0,0,24,0,0,17,16,19,0,0,11,0,0,15,0,10|];